p cnf 24 64
1 7 0
-1 -7 0
2 8 0
-2 -8 0
3 13 0
-3 -13 0
4 14 0
-4 -14 0
5 19 0
-5 -19 0
6 20 0
-6 -20 0
9 15 0
-9 -15 0
10 16 0
-10 -16 0
11 21 0
-11 -21 0
12 22 0
-12 -22 0
17 23 0
-17 -23 0
18 24 0
-18 -24 0
-1 9 0
1 -9 0
-9 13 0
9 -13 0
-2 11 0
2 -11 0
-11 19 0
11 -19 0
-4 17 0
4 -17 0
-17 20 0
17 -20 0
-10 18 0
10 -18 0
-18 22 0
18 -22 0
-1 -2 3 -4 5 6 7 8 -9 -10 -11 12 -13 14 15 16 -17 -18 -19 -20 21 -22 23 24 0
-2 -1 5 -6 3 4 8 7 -11 -12 -9 10 -19 20 21 22 -23 -24 -13 -14 15 -16 17 18 0
-3 -4 1 -2 6 5 13 14 -15 -16 -17 18 -7 8 9 10 -11 -12 -20 -19 23 -24 21 22 0
-4 -3 6 -5 1 2 14 13 -17 -18 -15 16 -20 19 23 24 -21 -22 -7 -8 9 -10 11 12 0
-5 -6 2 -1 4 3 19 20 -21 -22 -23 24 -8 7 11 12 -9 -10 -14 -13 17 -18 15 16 0
-6 -5 4 -3 2 1 20 19 -23 -24 -21 22 -14 13 17 18 -15 -16 -8 -7 11 -12 9 10 0
-7 -8 9 -10 11 12 1 2 -3 -4 -5 6 -15 16 13 14 -18 -17 -21 -22 19 -20 24 23 0
-8 -7 11 -12 9 10 2 1 -5 -6 -3 4 -21 22 19 20 -24 -23 -15 -16 13 -14 18 17 0
-9 -10 7 -8 12 11 15 16 -13 -14 -18 17 -1 2 3 4 -5 -6 -22 -21 24 -23 19 20 0
-10 -9 12 -11 7 8 16 15 -18 -17 -13 14 -22 21 24 23 -19 -20 -1 -2 3 -4 5 6 0
-11 -12 8 -7 10 9 21 22 -19 -20 -24 23 -2 1 5 6 -3 -4 -16 -15 18 -17 13 14 0
-12 -11 10 -9 8 7 22 21 -24 -23 -19 20 -16 15 18 17 -13 -14 -2 -1 5 -6 3 4 0
-13 -14 15 -16 17 18 3 4 -1 -2 -6 5 -9 10 7 8 -12 -11 -23 -24 20 -19 22 21 0
-14 -13 17 -18 15 16 4 3 -6 -5 -1 2 -23 24 20 19 -22 -21 -9 -10 7 -8 12 11 0
-15 -16 13 -14 18 17 9 10 -7 -8 -12 11 -3 4 1 2 -6 -5 -24 -23 22 -21 20 19 0
-16 -15 18 -17 13 14 10 9 -12 -11 -7 8 -24 23 22 21 -20 -19 -3 -4 1 -2 6 5 0
-17 -18 14 -13 16 15 23 24 -20 -19 -22 21 -4 3 6 5 -1 -2 -10 -9 12 -11 7 8 0
-18 -17 16 -15 14 13 24 23 -22 -21 -20 19 -10 9 12 11 -7 -8 -4 -3 6 -5 1 2 0
-19 -20 21 -22 23 24 5 6 -2 -1 -4 3 -11 12 8 7 -10 -9 -17 -18 14 -13 16 15 0
-20 -19 23 -24 21 22 6 5 -4 -3 -2 1 -17 18 14 13 -16 -15 -11 -12 8 -7 10 9 0
-21 -22 19 -20 24 23 11 12 -8 -7 -10 9 -5 6 2 1 -4 -3 -18 -17 16 -15 14 13 0
-22 -21 24 -23 19 20 12 11 -10 -9 -8 7 -18 17 16 15 -14 -13 -5 -6 2 -1 4 3 0
-23 -24 20 -19 22 21 17 18 -14 -13 -16 15 -6 5 4 3 -2 -1 -12 -11 10 -9 8 7 0
-24 -23 22 -21 20 19 18 17 -16 -15 -14 13 -12 11 10 9 -8 -7 -6 -5 4 -3 2 1 0
